SDVRP instances/custom_instances/p10_1_splitx10_0.vrp
NAME:p10_1_splitx10_
BEST_KNOWN: 0
COMMENT: 0
DIMENSION: 940
CAPACITY: 2000
EDGE_WEIGHT_FORMAT: FUNCTION
EDGE_WEIGHT_TYPE: EXACT_2D
NODE_COORD_SECTION
1 0.00000 0.00000
2 -32 -45
3 -32 -45
4 -32 -45
5 -32 -45
6 -32 -45
7 -47 21
8 -47 21
9 -47 21
10 -47 21
11 -47 21
12 -14 -5
13 -14 -5
14 -14 -5
15 -14 -5
16 -14 -5
17 -32 -47
18 -32 -47
19 -32 -47
20 -32 -47
21 -32 -47
22 -32 -47
23 -23 21
24 -23 21
25 -23 21
26 -23 21
27 -23 21
28 -11 14
29 -11 14
30 -11 14
31 22 -22
32 22 -22
33 22 -22
34 22 -22
35 22 -22
36 22 -22
37 22 -22
38 -26 -9
39 23 -20
40 23 -20
41 23 -20
42 23 -20
43 4 28
44 4 28
45 4 28
46 4 28
47 4 28
48 -13 38
49 -42 -17
50 -42 -17
51 -42 -17
52 -42 -17
53 -42 -17
54 -42 -17
55 46 22
56 46 22
57 46 22
58 46 22
59 46 22
60 30 -5
61 30 -5
62 30 -5
63 10 -31
64 10 -31
65 10 -31
66 10 -31
67 10 -31
68 10 -31
69 10 -31
70 12 -12
71 12 -12
72 12 -12
73 12 -12
74 12 -12
75 12 -12
76 12 -12
77 36 -5
78 36 -5
79 36 -5
80 36 -5
81 -11 -8
82 -11 -8
83 -11 -8
84 -11 -8
85 30 7
86 30 7
87 30 7
88 -1 -12
89 -1 -12
90 -1 -12
91 -1 -12
92 -31 -14
93 -31 -14
94 -31 -14
95 0 12
96 0 12
97 0 12
98 0 12
99 0 12
100 0 12
101 0 12
102 47 -38
103 47 -38
104 47 -38
105 12 -49
106 12 -49
107 12 -49
108 -10 20
109 -10 20
110 -10 20
111 -10 20
112 4 -28
113 4 -28
114 4 -28
115 -45 11
116 -45 11
117 -45 11
118 -45 11
119 -45 11
120 -45 11
121 -45 11
122 -46 46
123 -46 46
124 -46 46
125 -46 46
126 -46 46
127 -46 46
128 12 -40
129 12 -40
130 -42 -33
131 -42 -33
132 -42 -33
133 -42 -33
134 -42 -33
135 -42 -33
136 -42 -33
137 -4 47
138 -4 47
139 -4 47
140 -7 -17
141 -7 -17
142 -7 -17
143 -7 -17
144 10 -42
145 10 -42
146 10 -42
147 10 -42
148 -22 -34
149 -22 -34
150 -22 -34
151 -39 -44
152 -39 -44
153 -39 -44
154 -35 -49
155 -35 -49
156 -35 -49
157 -35 -49
158 -24 8
159 -24 8
160 -24 8
161 -24 8
162 -24 8
163 40 -4
164 40 -4
165 40 -4
166 40 -4
167 40 -4
168 40 -4
169 -35 -44
170 -35 -44
171 -35 -44
172 -35 -44
173 -35 -44
174 -35 -44
175 -35 -44
176 -2 -35
177 -2 -35
178 -2 -35
179 -48 9
180 -48 9
181 -48 9
182 -48 9
183 -24 45
184 -24 45
185 -24 45
186 -24 45
187 -24 45
188 -24 45
189 -24 45
190 -47 -40
191 -47 -40
192 -47 -40
193 -47 -40
194 -47 -40
195 -47 -40
196 -1 33
197 -1 33
198 -1 33
199 -1 33
200 -1 33
201 14 13
202 14 13
203 14 13
204 -33 -24
205 -33 -24
206 -33 -24
207 -33 -24
208 -33 -24
209 -33 -24
210 49 6
211 49 6
212 49 6
213 49 6
214 49 6
215 49 6
216 10 -49
217 10 -49
218 10 -49
219 -36 42
220 -36 42
221 -36 42
222 -36 42
223 -36 42
224 -36 42
225 -36 42
226 -36 42
227 -31 23
228 -31 23
229 -31 23
230 -31 23
231 -31 23
232 -31 23
233 32 -17
234 32 -17
235 32 -17
236 32 -17
237 32 -17
238 17 -33
239 17 -33
240 17 -33
241 17 -33
242 17 -33
243 -50 -11
244 -50 -11
245 -50 -11
246 -50 -11
247 -50 -11
248 23 -16
249 23 -16
250 23 -16
251 23 -16
252 23 -16
253 -45 -23
254 -45 -23
255 -45 -23
256 -45 -23
257 -29 8
258 -29 8
259 -29 8
260 -47 -12
261 -47 -12
262 -47 -12
263 -47 -12
264 -47 -12
265 22 -3
266 22 -3
267 22 -3
268 -15 -8
269 -15 -8
270 -15 -8
271 -15 -8
272 -15 -8
273 -15 -8
274 -30 -11
275 -30 -11
276 -30 -11
277 42 37
278 42 37
279 42 37
280 42 37
281 42 37
282 -30 -14
283 -30 -14
284 -30 -14
285 -30 -14
286 -30 -14
287 -30 -14
288 -49 -44
289 -49 -44
290 -49 -44
291 -49 -44
292 -49 -44
293 -49 -44
294 -49 -44
295 3 -46
296 3 -46
297 3 -46
298 3 -46
299 3 -46
300 8 -36
301 8 -36
302 8 -36
303 8 -36
304 9 32
305 9 32
306 9 32
307 9 32
308 9 32
309 9 32
310 9 32
311 9 32
312 -27 45
313 -27 45
314 -27 45
315 -32 -33
316 -32 -33
317 -32 -33
318 -32 -33
319 34 -18
320 34 -18
321 34 -18
322 34 -18
323 34 -18
324 23 34
325 23 34
326 23 34
327 23 34
328 -13 49
329 -13 49
330 -2 45
331 -2 45
332 -2 45
333 -46 -31
334 -46 -31
335 -46 -31
336 -46 -31
337 -18 -28
338 -18 -28
339 -18 -28
340 -18 -28
341 -18 -28
342 -18 -28
343 -18 -28
344 7 17
345 7 17
346 7 17
347 7 17
348 7 17
349 20 37
350 20 37
351 20 37
352 20 37
353 20 37
354 20 37
355 20 37
356 20 37
357 45 -32
358 45 -32
359 45 -32
360 45 -32
361 -27 31
362 -27 31
363 -27 31
364 -27 31
365 -27 31
366 48 -45
367 48 -45
368 48 -45
369 48 -45
370 48 -45
371 28 -46
372 28 -46
373 28 -46
374 28 -46
375 28 -46
376 28 -46
377 28 -46
378 28 -46
379 46 32
380 46 32
381 46 32
382 46 32
383 46 32
384 -9 29
385 -9 29
386 -6 -5
387 -6 -5
388 -6 -5
389 -6 -5
390 -6 -5
391 -6 -5
392 -6 -5
393 -21 50
394 -21 50
395 -21 50
396 42 31
397 42 31
398 42 31
399 42 31
400 -23 -36
401 -23 -36
402 -23 -36
403 4 20
404 4 20
405 4 20
406 4 20
407 4 20
408 11 35
409 11 35
410 11 35
411 11 35
412 -34 40
413 -34 40
414 -34 40
415 -34 40
416 -34 40
417 30 -48
418 30 -48
419 30 -48
420 -9 -12
421 -9 -12
422 -9 -12
423 -9 -12
424 -9 -12
425 41 15
426 41 15
427 41 15
428 41 15
429 41 15
430 41 15
431 18 10
432 18 10
433 18 10
434 18 10
435 -13 -12
436 -13 -12
437 -13 -12
438 -13 -12
439 -13 -12
440 28 11
441 28 11
442 28 11
443 24 7
444 24 7
445 24 7
446 24 7
447 24 7
448 24 7
449 -17 25
450 -17 25
451 -44 -31
452 -44 -31
453 -44 -31
454 -44 -31
455 18 -50
456 18 -50
457 18 -50
458 18 -50
459 18 -50
460 18 -50
461 18 -50
462 18 -50
463 4 14
464 4 14
465 4 14
466 -34 16
467 -34 16
468 -34 16
469 -34 16
470 -34 16
471 -14 -19
472 -14 -19
473 -14 -19
474 22 -27
475 22 -27
476 22 -27
477 22 -27
478 22 -27
479 22 -27
480 -23 49
481 -23 49
482 -23 49
483 -23 49
484 -23 49
485 -23 49
486 -21 18
487 -21 18
488 -46 16
489 -46 16
490 -46 16
491 -46 16
492 -46 16
493 -5 19
494 -5 19
495 -5 19
496 -5 19
497 -5 19
498 1 21
499 1 21
500 1 21
501 1 21
502 -21 37
503 -21 37
504 -21 37
505 -21 37
506 -21 37
507 -28 41
508 -28 41
509 -28 41
510 0 -22
511 0 -22
512 0 -22
513 0 -22
514 0 -22
515 0 -22
516 0 -22
517 32 -22
518 32 -22
519 0 50
520 0 50
521 0 50
522 11 -1
523 11 -1
524 11 -1
525 11 -1
526 -10 -45
527 -10 -45
528 -10 -45
529 -10 -45
530 -10 -45
531 35 49
532 35 49
533 35 49
534 29 -1
535 29 -1
536 29 -1
537 29 -1
538 29 -1
539 48 -3
540 48 -3
541 48 -3
542 48 -3
543 48 -3
544 -3 -30
545 -3 -30
546 -3 -30
547 -3 -30
548 -3 -30
549 -3 -30
550 -3 -30
551 -3 -30
552 32 -33
553 32 -33
554 32 -33
555 32 -33
556 32 -33
557 32 -33
558 32 -33
559 47 -8
560 47 -8
561 11 28
562 11 28
563 11 28
564 11 28
565 11 28
566 11 28
567 -37 -25
568 -37 -25
569 -37 -25
570 -37 -25
571 -37 -25
572 -37 -25
573 -37 -25
574 -37 -25
575 -33 -6
576 -33 -6
577 -33 -6
578 -33 -6
579 -42 -15
580 -42 -15
581 24 -33
582 24 -33
583 24 -33
584 24 -33
585 24 -33
586 24 -33
587 24 -33
588 24 -33
589 -29 -47
590 -29 -47
591 -29 -47
592 -29 -47
593 -29 -47
594 -29 -47
595 -29 -47
596 -22 -17
597 -22 -17
598 -22 -17
599 9 8
600 9 8
601 9 8
602 9 8
603 9 8
604 9 8
605 9 8
606 16 -31
607 16 -31
608 16 -31
609 16 -31
610 16 -31
611 16 -31
612 16 -31
613 -25 -37
614 -25 -37
615 -25 -37
616 -25 -37
617 -7 3
618 -7 3
619 -7 3
620 -7 3
621 -7 3
622 -7 3
623 1 -40
624 1 -40
625 1 -40
626 1 -40
627 -46 -2
628 -46 -2
629 -46 -2
630 17 16
631 17 16
632 17 16
633 17 16
634 35 36
635 35 36
636 35 36
637 35 36
638 35 36
639 9 28
640 9 28
641 9 28
642 9 28
643 9 28
644 -38 35
645 -38 35
646 -38 35
647 -38 35
648 17 18
649 17 18
650 17 18
651 17 18
652 2 -13
653 2 -13
654 2 -13
655 2 -13
656 45 -44
657 45 -44
658 45 -44
659 45 -44
660 45 -44
661 45 -44
662 -44 17
663 -44 17
664 -44 17
665 -44 17
666 -44 17
667 24 -30
668 24 -30
669 24 -30
670 24 -30
671 24 -30
672 10 -2
673 10 -2
674 10 -2
675 10 -2
676 -1 25
677 -1 25
678 -1 25
679 -1 25
680 -1 25
681 -1 25
682 38 17
683 38 17
684 38 17
685 38 17
686 38 17
687 38 17
688 38 17
689 7 -33
690 7 -33
691 7 -33
692 7 -33
693 7 -33
694 7 -33
695 -16 43
696 -16 43
697 -16 43
698 42 -28
699 42 -28
700 42 -28
701 42 -28
702 42 -28
703 -49 32
704 -49 32
705 -49 32
706 -49 32
707 -49 32
708 -3 19
709 -3 19
710 -3 19
711 -3 19
712 20 34
713 20 34
714 20 34
715 20 34
716 20 34
717 20 34
718 32 -36
719 32 -36
720 32 -36
721 32 -36
722 -33 11
723 -33 11
724 -33 11
725 -33 11
726 -33 11
727 -33 11
728 -33 11
729 -18 49
730 -18 49
731 -18 49
732 -18 49
733 -18 49
734 -18 49
735 -18 49
736 -18 49
737 41 -23
738 41 -23
739 41 -23
740 41 -23
741 41 -23
742 41 -23
743 24 -42
744 24 -42
745 24 -42
746 24 -42
747 24 -42
748 37 13
749 37 13
750 37 13
751 37 13
752 -23 -40
753 -23 -40
754 -23 -40
755 -23 -40
756 -23 -40
757 -23 -40
758 -23 -40
759 -23 4
760 -23 4
761 -23 4
762 -23 4
763 -23 4
764 -23 4
765 -4 -14
766 -4 -14
767 -4 -14
768 -4 -14
769 -4 -14
770 15 -33
771 15 -33
772 15 -33
773 15 -33
774 15 -33
775 22 -48
776 22 -48
777 22 -48
778 22 -48
779 22 -48
780 13 -33
781 13 -33
782 13 -33
783 23 30
784 23 30
785 23 30
786 -35 7
787 -35 7
788 -35 7
789 -35 7
790 -35 7
791 -11 -45
792 -11 -45
793 -11 -45
794 -11 -45
795 -11 -45
796 -11 -45
797 -11 -45
798 -12 46
799 -12 46
800 -12 46
801 -12 46
802 -12 46
803 -7 -9
804 -7 -9
805 -7 -9
806 -7 -9
807 -7 -9
808 -7 -9
809 10 10
810 10 10
811 10 10
812 10 10
813 10 10
814 -28 33
815 -28 33
816 -28 33
817 -20 -19
818 -20 -19
819 -20 -19
820 27 -6
821 27 -6
822 27 -6
823 -41 -46
824 -41 -46
825 -41 -46
826 -41 -46
827 -41 -46
828 27 43
829 27 43
830 27 43
831 -50 7
832 -50 7
833 -50 7
834 -50 7
835 48 -12
836 48 -12
837 48 -12
838 48 -12
839 48 -12
840 42 41
841 42 41
842 42 41
843 -4 -45
844 -4 -45
845 -4 -45
846 -4 -45
847 -4 -45
848 -49 0
849 -49 0
850 34 -29
851 34 -29
852 34 -29
853 34 -29
854 34 -29
855 12 -31
856 12 -31
857 12 -31
858 -24 -32
859 -24 -32
860 -24 -32
861 -24 -32
862 -24 -32
863 -24 -32
864 -13 -13
865 -13 -13
866 -13 -13
867 -13 -13
868 -13 -13
869 -13 -13
870 41 46
871 41 46
872 41 46
873 41 46
874 41 46
875 -12 19
876 -12 19
877 -12 19
878 -12 19
879 -12 19
880 9 5
881 9 5
882 9 5
883 9 5
884 9 5
885 9 5
886 -20 38
887 -20 38
888 -20 38
889 -20 38
890 -45 -4
891 -45 -4
892 -45 -4
893 -45 -4
894 -16 7
895 -16 7
896 -16 7
897 -16 7
898 -16 7
899 -16 7
900 46 -33
901 46 -33
902 46 -33
903 46 -33
904 22 -38
905 22 -38
906 22 -38
907 22 -38
908 22 -38
909 -34 30
910 -34 30
911 -34 30
912 -34 30
913 -34 30
914 3 17
915 3 17
916 3 17
917 3 17
918 3 17
919 25 -4
920 25 -4
921 25 -4
922 25 -4
923 25 -4
924 25 -4
925 25 -4
926 36 -35
927 36 -35
928 35 -38
929 35 -38
930 35 -38
931 35 -38
932 35 -38
933 -8 3
934 -8 3
935 -8 3
936 30 -8
937 30 -8
938 30 -8
939 30 -8
940 30 -8
DEMAND_SECTION
1 0
2 400
3 400
4 20
5 20
6 10
7 200
8 100
9 20
10 20
11 10
12 200
13 20
14 20
15 20
16 20
17 400
18 400
19 20
20 20
21 20
22 20
23 400
24 200
25 100
26 20
27 20
28 400
29 400
30 20
31 400
32 400
33 100
34 20
35 20
36 20
37 20
38 400
39 200
40 20
41 20
42 20
43 400
44 400
45 100
46 20
47 10
48 400
49 400
50 200
51 100
52 20
53 20
54 10
55 400
56 100
57 20
58 20
59 10
60 400
61 400
62 20
63 400
64 100
65 20
66 20
67 20
68 20
69 10
70 400
71 200
72 100
73 20
74 20
75 20
76 20
77 200
78 100
79 20
80 20
81 400
82 200
83 20
84 20
85 400
86 400
87 100
88 400
89 400
90 100
91 20
92 400
93 20
94 20
95 400
96 100
97 20
98 20
99 20
100 20
101 10
102 400
103 200
104 20
105 400
106 100
107 10
108 200
109 20
110 20
111 10
112 400
113 400
114 10
115 200
116 100
117 20
118 20
119 20
120 20
121 10
122 200
123 100
124 20
125 20
126 20
127 10
128 400
129 400
130 400
131 200
132 100
133 20
134 20
135 20
136 20
137 400
138 400
139 200
140 400
141 400
142 20
143 10
144 200
145 20
146 20
147 10
148 400
149 100
150 10
151 400
152 100
153 20
154 200
155 20
156 20
157 10
158 200
159 100
160 20
161 20
162 20
163 400
164 400
165 100
166 20
167 20
168 20
169 400
170 400
171 100
172 20
173 20
174 20
175 20
176 400
177 400
178 20
179 400
180 400
181 100
182 20
183 400
184 200
185 100
186 20
187 20
188 20
189 20
190 400
191 400
192 20
193 20
194 20
195 20
196 400
197 20
198 20
199 20
200 10
201 400
202 100
203 10
204 400
205 20
206 20
207 20
208 20
209 10
210 400
211 400
212 20
213 20
214 20
215 10
216 400
217 100
218 10
219 400
220 200
221 100
222 20
223 20
224 20
225 20
226 10
227 400
228 200
229 100
230 20
231 20
232 10
233 200
234 20
235 20
236 20
237 20
238 400
239 200
240 100
241 20
242 10
243 400
244 400
245 20
246 20
247 10
248 200
249 100
250 20
251 20
252 10
253 200
254 20
255 20
256 10
257 400
258 200
259 20
260 400
261 200
262 20
263 20
264 20
265 400
266 100
267 10
268 400
269 200
270 20
271 20
272 20
273 10
274 400
275 20
276 20
277 400
278 20
279 20
280 20
281 10
282 400
283 100
284 20
285 20
286 20
287 10
288 400
289 400
290 100
291 20
292 20
293 20
294 20
295 400
296 400
297 100
298 20
299 20
300 400
301 200
302 20
303 10
304 400
305 400
306 100
307 20
308 20
309 20
310 20
311 10
312 400
313 200
314 20
315 200
316 100
317 20
318 10
319 400
320 400
321 100
322 20
323 10
324 400
325 200
326 20
327 20
328 400
329 100
330 400
331 20
332 20
333 200
334 20
335 20
336 20
337 400
338 400
339 100
340 20
341 20
342 20
343 10
344 400
345 100
346 20
347 20
348 20
349 400
350 200
351 100
352 20
353 20
354 20
355 20
356 10
357 200
358 100
359 20
360 10
361 200
362 100
363 20
364 20
365 10
366 400
367 100
368 20
369 20
370 20
371 400
372 400
373 100
374 20
375 20
376 20
377 20
378 10
379 400
380 200
381 100
382 20
383 10
384 200
385 100
386 400
387 200
388 100
389 20
390 20
391 20
392 20
393 400
394 100
395 20
396 400
397 400
398 100
399 10
400 400
401 20
402 10
403 400
404 200
405 100
406 20
407 20
408 400
409 200
410 100
411 10
412 400
413 400
414 100
415 20
416 20
417 400
418 400
419 200
420 400
421 200
422 20
423 20
424 20
425 400
426 200
427 20
428 20
429 20
430 10
431 400
432 200
433 100
434 10
435 400
436 400
437 100
438 20
439 10
440 400
441 100
442 10
443 400
444 200
445 100
446 20
447 20
448 10
449 400
450 100
451 400
452 200
453 20
454 20
455 400
456 200
457 100
458 20
459 20
460 20
461 20
462 10
463 400
464 200
465 20
466 400
467 100
468 20
469 20
470 10
471 400
472 200
473 10
474 400
475 400
476 100
477 20
478 20
479 20
480 200
481 100
482 20
483 20
484 20
485 10
486 400
487 100
488 200
489 20
490 20
491 20
492 20
493 400
494 400
495 20
496 20
497 10
498 400
499 200
500 20
501 10
502 400
503 100
504 20
505 20
506 10
507 200
508 100
509 20
510 400
511 200
512 100
513 20
514 20
515 20
516 20
517 400
518 100
519 200
520 100
521 10
522 400
523 100
524 20
525 10
526 400
527 400
528 20
529 20
530 20
531 400
532 20
533 10
534 400
535 400
536 100
537 20
538 20
539 400
540 200
541 20
542 20
543 20
544 400
545 400
546 100
547 20
548 20
549 20
550 20
551 10
552 400
553 200
554 100
555 20
556 20
557 20
558 20
559 400
560 10
561 400
562 200
563 100
564 20
565 20
566 10
567 400
568 200
569 100
570 20
571 20
572 20
573 20
574 10
575 400
576 20
577 20
578 10
579 400
580 400
581 400
582 200
583 100
584 20
585 20
586 20
587 20
588 10
589 400
590 200
591 100
592 20
593 20
594 20
595 20
596 400
597 400
598 20
599 400
600 400
601 100
602 20
603 20
604 20
605 10
606 400
607 400
608 20
609 20
610 20
611 20
612 10
613 400
614 400
615 20
616 20
617 400
618 400
619 100
620 20
621 20
622 20
623 200
624 100
625 20
626 10
627 400
628 20
629 10
630 200
631 100
632 20
633 20
634 400
635 200
636 20
637 20
638 20
639 400
640 200
641 20
642 20
643 20
644 400
645 400
646 100
647 10
648 400
649 20
650 20
651 10
652 400
653 100
654 20
655 20
656 400
657 400
658 100
659 20
660 20
661 20
662 400
663 200
664 20
665 20
666 10
667 400
668 400
669 20
670 20
671 20
672 400
673 200
674 20
675 10
676 200
677 20
678 20
679 20
680 20
681 10
682 400
683 400
684 20
685 20
686 20
687 20
688 10
689 200
690 20
691 20
692 20
693 20
694 10
695 400
696 400
697 10
698 400
699 400
700 20
701 20
702 10
703 200
704 100
705 20
706 20
707 10
708 400
709 100
710 20
711 10
712 400
713 400
714 100
715 20
716 20
717 20
718 400
719 400
720 20
721 10
722 400
723 200
724 100
725 20
726 20
727 20
728 20
729 400
730 400
731 100
732 20
733 20
734 20
735 20
736 10
737 200
738 100
739 20
740 20
741 20
742 20
743 200
744 100
745 20
746 20
747 20
748 400
749 400
750 20
751 10
752 200
753 100
754 20
755 20
756 20
757 20
758 10
759 400
760 400
761 100
762 20
763 20
764 10
765 400
766 100
767 20
768 20
769 10
770 200
771 20
772 20
773 20
774 10
775 400
776 20
777 20
778 20
779 20
780 400
781 20
782 10
783 400
784 200
785 100
786 400
787 200
788 20
789 20
790 20
791 400
792 400
793 100
794 20
795 20
796 20
797 10
798 400
799 20
800 20
801 20
802 20
803 200
804 100
805 20
806 20
807 20
808 10
809 400
810 200
811 100
812 20
813 10
814 400
815 200
816 100
817 400
818 200
819 100
820 400
821 100
822 10
823 400
824 400
825 20
826 20
827 20
828 400
829 20
830 10
831 400
832 20
833 20
834 20
835 400
836 100
837 20
838 20
839 20
840 400
841 20
842 20
843 400
844 400
845 100
846 20
847 10
848 200
849 100
850 400
851 400
852 20
853 20
854 20
855 400
856 400
857 10
858 200
859 20
860 20
861 20
862 20
863 10
864 400
865 400
866 100
867 20
868 20
869 20
870 200
871 20
872 20
873 20
874 20
875 400
876 400
877 20
878 20
879 20
880 200
881 100
882 20
883 20
884 20
885 10
886 400
887 400
888 20
889 20
890 200
891 20
892 20
893 10
894 400
895 400
896 100
897 20
898 20
899 20
900 400
901 200
902 100
903 20
904 400
905 20
906 20
907 20
908 20
909 400
910 200
911 20
912 20
913 20
914 200
915 20
916 20
917 20
918 20
919 400
920 200
921 100
922 20
923 20
924 20
925 10
926 400
927 100
928 200
929 20
930 20
931 20
932 20
933 400
934 100
935 20
936 200
937 100
938 20
939 20
940 10
DEPOT_SECTION
1
-1
EOF