SDVRP instances/custom_instances/p10_1_splitx10_0.sol
939 -11 12 15 13 14 37 275 273 274 91 92 281 284 283 285 -17 16 591 594 590 588 593 589 592 754 756 757 755 752 753 751 -26 25 227 226 229 231 230 9 7 8 10 6 490 491 487 488 489 664 663 665 662 661 -28 27 23 24 22 485 486 -29 813 815 814 412 413 411 415 414 506 508 507 -43 44 42 45 46 638 641 639 642 640 560 -47 327 328 801 800 799 798 797 195 198 199 678 676 679 677 -62 66 65 64 63 68 67 855 856 854 70 69 -72 75 73 71 38 517 516 322 319 318 320 232 236 -74 40 39 41 36 34 32 35 30 31 33 475 473 478 474 476 -83 81 80 82 271 272 269 270 267 268 421 419 423 420 422 -87 764 765 767 768 766 141 140 142 139 806 802 -88 515 514 509 510 653 652 654 651 671 -90 89 512 513 511 545 543 544 548 546 112 111 -95 98 94 708 710 709 707 498 500 499 497 404 403 -99 96 100 97 916 915 914 913 917 402 406 405 347 343 344 345 346 463 464 462 -101 103 102 901 899 900 902 357 356 358 359 701 700 699 736 739 738 740 -105 104 106 216 217 215 295 294 298 296 297 -113 693 690 692 689 691 688 299 302 301 300 145 144 143 146 128 127 -135 131 129 130 453 450 451 452 332 335 334 333 253 252 255 254 93 286 282 -137 138 136 520 519 518 329 331 330 197 196 675 680 -148 149 615 614 5 1 3 4 2 171 172 168 173 174 169 170 805 -150 151 152 826 824 823 822 825 155 156 154 153 21 19 18 20 858 860 859 857 -176 177 175 846 845 843 842 625 623 624 622 -181 180 179 830 831 832 833 848 847 626 628 627 891 890 889 892 -183 187 188 184 182 185 186 312 311 313 504 501 505 503 502 -202 200 201 647 629 631 630 632 430 431 -204 206 203 52 53 50 51 49 48 579 578 -207 205 208 132 133 134 189 193 194 191 192 190 287 289 293 291 288 292 290 437 -212 211 213 214 209 210 55 56 57 58 54 682 683 440 -228 706 703 704 705 702 123 126 122 124 125 121 220 223 218 219 222 221 225 224 361 360 363 364 362 -233 234 235 321 741 737 698 697 925 926 553 551 -238 239 746 743 745 742 744 776 775 774 778 777 458 455 454 456 460 457 461 459 771 770 -251 249 247 248 250 834 836 835 837 838 558 559 540 542 539 541 538 -258 257 256 725 727 724 726 723 722 721 159 157 160 161 158 933 620 618 -261 260 262 263 259 246 243 245 244 242 574 576 577 575 -276 280 279 277 278 839 841 840 873 871 872 869 870 530 532 531 783 784 648 649 650 -304 303 309 310 306 305 308 307 410 408 409 407 561 565 564 -341 338 339 147 400 401 399 613 612 861 862 471 -342 340 337 336 314 317 315 316 567 571 569 572 573 566 568 570 -366 367 368 365 369 658 657 659 656 655 660 929 927 930 928 931 586 585 582 583 -375 373 377 376 372 374 370 371 418 416 417 -384 383 694 696 695 886 887 885 888 -386 387 390 389 385 934 932 616 621 619 617 -388 391 596 595 597 818 816 817 472 470 -398 395 396 397 380 382 381 379 378 444 446 443 -438 435 436 434 864 868 867 866 863 865 803 807 804 -447 445 442 85 84 86 441 439 433 432 880 -448 646 645 644 643 910 911 908 909 912 -449 480 484 479 483 481 482 393 392 394 728 730 731 735 732 733 729 734 -465 467 469 468 466 119 120 116 118 115 117 114 178 785 786 788 787 789 -477 667 670 669 668 666 580 581 587 584 903 905 906 907 904 -494 496 493 495 492 109 110 108 107 878 877 876 874 875 -524 523 522 521 264 266 265 536 535 537 533 534 -547 550 549 844 526 527 525 528 529 793 794 791 796 790 792 795 -563 562 354 348 349 351 353 350 352 355 827 828 829 634 633 635 637 636 -604 602 601 598 599 600 603 811 809 810 808 812 879 883 884 882 881 -610 607 611 609 608 605 606 237 241 240 769 773 772 781 780 779 -672 673 674 821 76 77 78 79 166 163 162 164 165 167 59 61 923 -681 686 685 687 684 424 427 429 425 426 428 748 747 750 749 -715 712 713 711 716 714 325 323 326 324 782 -720 719 717 718 554 555 557 552 556 852 853 849 850 851 -760 758 762 761 763 759 898 894 896 897 895 893 -820 819 937 938 935 939 936 60 920 919 924 918 921 922 0 





OBJ=
5640.873
BEST_KNOWN=
0.000